
Gurobi 7.0.1 (win64) logging started 03/26/17 16:56:23

Changed value of parameter LogFile to ProvinceRunOutputs/log_prov9.log
   Prev: gurobi.log  Default: 
Optimize a model with 3930 rows, 168330 columns and 337094 nonzeros
Variable types: 0 continuous, 168330 integer (168330 binary)
Coefficient statistics:
  Matrix range     [1e+00, 1e+05]
  Objective range  [5e-02, 3e+02]
  Bounds range     [1e+00, 1e+00]
  RHS range        [1e+00, 6e+00]
Found heuristic solution: objective 457248
Presolve removed 489 rows and 8676 columns
Presolve time: 0.79s
Presolved: 3441 rows, 159654 columns, 319494 nonzeros

MIP start did not produce a new incumbent solution
MIP start violates constraint R0 by 739999.000000000

Variable types: 0 continuous, 159654 integer (159654 binary)

Root relaxation: objective 8.020296e+04, 3109 iterations, 0.05 seconds

    Nodes    |    Current Node    |     Objective Bounds      |     Work
 Expl Unexpl |  Obj  Depth IntInf | Incumbent    BestBd   Gap | It/Node Time

     0     0 80202.9594    0   37 457247.714 80202.9594  82.5%     -    1s
H    0     0                    204029.64066 80202.9594  60.7%     -    1s
H    0     0                    110560.61677 80202.9594  27.5%     -    2s
H    0     0                    100984.10798 80202.9594  20.6%     -    2s
H    0     0                    94246.907145 80202.9594  14.9%     -    4s
     0     0 83957.2709    0  855 94246.9071 83957.2709  10.9%     -    4s
     0     0 84117.5732    0  898 94246.9071 84117.5732  10.7%     -    5s
     0     0 89330.1507    0 2258 94246.9071 89330.1507  5.22%     -    6s
     0     0 89392.8784    0 2273 94246.9071 89392.8784  5.15%     -    7s
     0     0 90668.4095    0 2292 94246.9071 90668.4095  3.80%     -    7s
     0     0 90966.1617    0 2373 94246.9071 90966.1617  3.48%     -    8s
     0     0 91208.3335    0 3198 94246.9071 91208.3335  3.22%     -    9s
     0     0 91491.0810    0 3383 94246.9071 91491.0810  2.92%     -   10s
     0     0 91918.1556    0 2077 94246.9071 91918.1556  2.47%     -   10s
     0     0 91935.6325    0 2460 94246.9071 91935.6325  2.45%     -   11s
     0     0 92044.0457    0 3061 94246.9071 92044.0457  2.34%     -   11s
*    0     0               0    92696.108872 92696.1089  0.00%     -   14s

Explored 0 nodes (17502 simplex iterations) in 14.89 seconds
Thread count was 4 (of 4 available processors)

Solution count 6: 92696.1 94246.9 100984 ... 457248
Pool objective bound 92696.1

Optimal solution found (tolerance 1.00e-04)
Best objective 9.269610887224e+04, best bound 9.269610887224e+04, gap 0.0000%
Optimize a model with 4024 rows, 168330 columns and 337376 nonzeros
Variable types: 0 continuous, 168330 integer (168330 binary)
Coefficient statistics:
  Matrix range     [1e+00, 1e+05]
  Objective range  [5e-02, 3e+02]
  Bounds range     [1e+00, 1e+00]
  RHS range        [1e+00, 6e+00]
Found heuristic solution: objective 457248
Presolve removed 489 rows and 8676 columns
Presolve time: 0.79s
Presolved: 3535 rows, 159654 columns, 319776 nonzeros

MIP start did not produce a new incumbent solution
MIP start violates constraint R0 by 739999.000000000

Variable types: 0 continuous, 159654 integer (159654 binary)

Root relaxation: objective 8.020296e+04, 3110 iterations, 0.05 seconds

    Nodes    |    Current Node    |     Objective Bounds      |     Work
 Expl Unexpl |  Obj  Depth IntInf | Incumbent    BestBd   Gap | It/Node Time

     0     0 80202.9594    0   37 457247.714 80202.9594  82.5%     -    1s
H    0     0                    168485.19686 80202.9594  52.4%     -    2s
H    0     0                    121377.79102 80202.9594  33.9%     -    2s
H    0     0                    101149.18605 80202.9594  20.7%     -    2s
H    0     0                    96244.006209 80202.9594  16.7%     -    4s
     0     0 83771.6777    0  708 96244.0062 83771.6777  13.0%     -    4s
     0     0 83819.9894    0  735 96244.0062 83819.9894  12.9%     -    5s
     0     0 88628.4499    0 2198 96244.0062 88628.4499  7.91%     -    7s
     0     0 88916.1709    0 2307 96244.0062 88916.1709  7.61%     -    8s
     0     0 90405.6799    0 2157 96244.0062 90405.6799  6.07%     -    8s
     0     0 90566.1776    0 1876 96244.0062 90566.1776  5.90%     -    9s
     0     0 91005.7588    0 2044 96244.0062 91005.7588  5.44%     -   11s
     0     0 91019.8051    0 2700 96244.0062 91019.8051  5.43%     -   11s
     0     0 91344.4109    0 3451 96244.0062 91344.4109  5.09%     -   12s
     0     0 91646.2523    0 3813 96244.0062 91646.2523  4.78%     -   13s
     0     0 91927.2219    0 2950 96244.0062 91927.2219  4.49%     -   14s
H    0     0                    94701.484905 91927.2219  2.93%     -   14s
     0     0 91962.0361    0 2995 94701.4849 91962.0361  2.89%     -   14s
     0     0 92045.2291    0 2414 94701.4849 92045.2291  2.80%     -   15s
     0     0 92065.2642    0 1997 94701.4849 92065.2642  2.78%     -   16s
     0     0 92241.7566    0 3295 94701.4849 92241.7566  2.60%     -   16s
*    0     0               0    92696.108872 92696.1089  0.00%     -   20s

Explored 0 nodes (20059 simplex iterations) in 20.66 seconds
Thread count was 4 (of 4 available processors)

Solution count 7: 92696.1 94701.5 96244 ... 457248
Pool objective bound 92696.1

Optimal solution found (tolerance 1.00e-04)
Best objective 9.269610887224e+04, best bound 9.269610887224e+04, gap 0.0000%
Optimize a model with 4425 rows, 168330 columns and 338579 nonzeros
Variable types: 0 continuous, 168330 integer (168330 binary)
Coefficient statistics:
  Matrix range     [1e+00, 1e+05]
  Objective range  [5e-02, 3e+02]
  Bounds range     [1e+00, 1e+00]
  RHS range        [1e+00, 6e+00]
Found heuristic solution: objective 415519
Presolve removed 489 rows and 8676 columns
Presolve time: 0.79s
Presolved: 3936 rows, 159654 columns, 320979 nonzeros

MIP start did not produce a new incumbent solution
MIP start violates constraint R0 by 739999.000000000

Variable types: 0 continuous, 159654 integer (159654 binary)

Root relaxation: objective 8.033603e+04, 3156 iterations, 0.06 seconds

    Nodes    |    Current Node    |     Objective Bounds      |     Work
 Expl Unexpl |  Obj  Depth IntInf | Incumbent    BestBd   Gap | It/Node Time

     0     0 80336.0260    0   37 415519.112 80336.0260  80.7%     -    1s
H    0     0                    109256.55676 80336.0260  26.5%     -    2s
H    0     0                    104387.51326 80336.0260  23.0%     -    2s
H    0     0                    94152.268972 80336.0260  14.7%     -    4s
     0     0 84141.2759    0  906 94152.2690 84141.2759  10.6%     -    4s
     0     0 84250.0577    0 1095 94152.2690 84250.0577  10.5%     -    5s
     0     0 89408.0582    0 2650 94152.2690 89408.0582  5.04%     -    7s
     0     0 89408.2933    0 2657 94152.2690 89408.2933  5.04%     -    7s
     0     0 90855.1935    0 2873 94152.2690 90855.1935  3.50%     -    9s
     0     0 90902.8520    0 2146 94152.2690 90902.8520  3.45%     -    9s
     0     0 91188.4254    0 2211 94152.2690 91188.4254  3.15%     -   10s
     0     0 91210.4532    0 2274 94152.2690 91210.4532  3.12%     -   10s
     0     0 91326.5996    0 2760 94152.2690 91326.5996  3.00%     -   11s
     0     0 91326.5996    0 2756 94152.2690 91326.5996  3.00%     -   14s
     0     2 91326.5996    0 2756 94152.2690 91326.5996  3.00%     -   18s
    17    12 91410.5732    9 3091 94152.2690 91409.4455  2.91%  36.6   20s
H   28    12                    92715.808399 91450.2206  1.37%  98.4   30s
    53    11     cutoff   20      92715.8084 91764.4596  1.03%   135   35s
   238   144 92395.3912  108 1392 92715.8084 91860.6689  0.92%  49.5   40s
   535   322 92590.0947   40 1337 92715.8084 92362.3284  0.38%  25.6   45s
   732   421 92436.6182   78 2756 92715.8084 92384.9335  0.36%  24.6   51s

Explored 733 nodes (35003 simplex iterations) in 52.47 seconds
Thread count was 4 (of 4 available processors)

Solution count 5: 92715.8 94152.3 104388 ... 415519
Pool objective bound 92715.8

Optimal solution found (tolerance 1.00e-04)
Best objective 9.271580839949e+04, best bound 9.271580839949e+04, gap 0.0000%
Optimize a model with 4541 rows, 168330 columns and 338927 nonzeros
Variable types: 0 continuous, 168330 integer (168330 binary)
Coefficient statistics:
  Matrix range     [1e+00, 1e+05]
  Objective range  [5e-02, 3e+02]
  Bounds range     [1e+00, 1e+00]
  RHS range        [1e+00, 6e+00]
Found heuristic solution: objective 415519
Presolve removed 489 rows and 8676 columns
Presolve time: 0.80s
Presolved: 4052 rows, 159654 columns, 321327 nonzeros

MIP start did not produce a new incumbent solution
MIP start violates constraint R0 by 739999.000000000

Variable types: 0 continuous, 159654 integer (159654 binary)

Root relaxation: objective 8.036547e+04, 3171 iterations, 0.06 seconds

    Nodes    |    Current Node    |     Objective Bounds      |     Work
 Expl Unexpl |  Obj  Depth IntInf | Incumbent    BestBd   Gap | It/Node Time

     0     0 80365.4696    0   37 415519.112 80365.4696  80.7%     -    1s
H    0     0                    113287.85511 80365.4696  29.1%     -    2s
H    0     0                    104913.59730 80365.4696  23.4%     -    2s
H    0     0                    95345.880582 80365.4696  15.7%     -    4s
     0     0 84058.9394    0  877 95345.8806 84058.9394  11.8%     -    4s
     0     0 84146.8718    0  994 95345.8806 84146.8718  11.7%     -    5s
     0     0 89468.6264    0 2526 95345.8806 89468.6264  6.16%     -    7s
     0     0 89470.3037    0 2564 95345.8806 89470.3037  6.16%     -    8s
     0     0 90725.2237    0 3359 95345.8806 90725.2237  4.85%     -    9s
     0     0 90747.5527    0 3623 95345.8806 90747.5527  4.82%     -   10s
     0     0 91186.6588    0 3245 95345.8806 91186.6588  4.36%     -   11s
H    0     0                    94616.228971 91186.6588  3.62%     -   11s
     0     0 91587.7745    0 3684 94616.2290 91587.7745  3.20%     -   12s
     0     0 91894.1030    0 3833 94616.2290 91894.1030  2.88%     -   13s
     0     0 91903.3366    0 3764 94616.2290 91903.3366  2.87%     -   13s
     0     0 92100.5389    0 3930 94616.2290 92100.5389  2.66%     -   14s
     0     0 92100.9195    0 3915 94616.2290 92100.9195  2.66%     -   18s
     0     0 92100.9195    0 3915 94616.2290 92100.9195  2.66%     -   18s
H    0     0                    93811.837145 92100.9195  1.82%     -   18s
     0     0 92978.0881    0 1590 93811.8371 92978.0881  0.89%     -   23s
H    0     0                    93240.367777 92978.0881  0.28%     -   24s
     0     0 92992.1463    0 1590 93240.3678 92992.1463  0.27%     -   27s
     0     0 92992.1463    0 1594 93240.3678 92992.1463  0.27%     -   29s
     0     0 92992.1463    0 1594 93240.3678 92992.1463  0.27%     -   30s
     0     0 92993.9518    0 1594 93240.3678 92993.9518  0.26%     -   33s
     0     0 92994.8249    0 1594 93240.3678 92994.8249  0.26%     -   34s
     0     0 92999.8087    0 1592 93240.3678 92999.8087  0.26%     -   35s
     0     0 93001.7766    0 1594 93240.3678 93001.7766  0.26%     -   35s
     0     0 93002.2018    0 1594 93240.3678 93002.2018  0.26%     -   36s
     0     0 93005.6460    0 1594 93240.3678 93005.6460  0.25%     -   37s
     0     0 93006.4255    0 1592 93240.3678 93006.4255  0.25%     -   38s
     0     0 93007.6819    0 1588 93240.3678 93007.6819  0.25%     -   38s
     0     0 93007.6996    0 1594 93240.3678 93007.6996  0.25%     -   38s
     0     0 93007.6996    0 1594 93240.3678 93007.6996  0.25%     -   39s
     0     0 93007.9777    0 1594 93240.3678 93007.9777  0.25%     -   39s
     0     0 93009.1185    0 1592 93240.3678 93009.1185  0.25%     -   40s
     0     0 93010.1638    0 1580 93240.3678 93010.1638  0.25%     -   42s
     0     0 93010.6501    0 1592 93240.3678 93010.6501  0.25%     -   42s
     0     0 93013.2331    0 1592 93240.3678 93013.2331  0.24%     -   43s
     0     0 93014.4748    0 1592 93240.3678 93014.4748  0.24%     -   44s
     0     0 93014.7529    0 1592 93240.3678 93014.7529  0.24%     -   44s
     0     0 93017.7280    0 1590 93240.3678 93017.7280  0.24%     -   44s
     0     0 93018.1986    0 1592 93240.3678 93018.1986  0.24%     -   45s
     0     0 93018.9912    0 1592 93240.3678 93018.9912  0.24%     -   45s
     0     0 93019.0729    0 1592 93240.3678 93019.0729  0.24%     -   46s
     0     0 93019.5065    0 1592 93240.3678 93019.5065  0.24%     -   46s
     0     0 93020.4567    0 1592 93240.3678 93020.4567  0.24%     -   47s
     0     0 93020.9418    0 1590 93240.3678 93020.9418  0.24%     -   47s
     0     0 93022.0350    0 1601 93240.3678 93022.0350  0.23%     -   47s
     0     0 93023.2560    0 1592 93240.3678 93023.2560  0.23%     -   48s
     0     0 93023.2979    0 1592 93240.3678 93023.2979  0.23%     -   48s
     0     0 93023.3796    0 1592 93240.3678 93023.3796  0.23%     -   49s
     0     0 93023.7491    0 1601 93240.3678 93023.7491  0.23%     -   49s
     0     0 93024.8897    0 1605 93240.3678 93024.8897  0.23%     -   50s
     0     0 93026.2814    0 1608 93240.3678 93026.2814  0.23%     -   50s
     0     0 93028.9273    0 1603 93240.3678 93028.9273  0.23%     -   50s
     0     0 93029.6636    0 1603 93240.3678 93029.6636  0.23%     -   51s
     0     0 93031.5181    0 1604 93240.3678 93031.5181  0.22%     -   51s
     0     0 93033.7558    0 1604 93240.3678 93033.7558  0.22%     -   51s
     0     0 93038.1018    0 1608 93240.3678 93038.1018  0.22%     -   52s
     0     0 93039.0771    0 1599 93240.3678 93039.0771  0.22%     -   52s
     0     0 93039.8475    0 1600 93240.3678 93039.8475  0.22%     -   53s
     0     0 93040.0170    0 1605 93240.3678 93040.0170  0.21%     -   53s
     0     0 93041.3138    0 1602 93240.3678 93041.3138  0.21%     -   54s
     0     0 93042.1728    0 1604 93240.3678 93042.1728  0.21%     -   54s
     0     0 93042.5594    0 1600 93240.3678 93042.5594  0.21%     -   55s
     0     0 93043.5695    0 1601 93240.3678 93043.5695  0.21%     -   55s
     0     0 93045.1296    0 1597 93240.3678 93045.1296  0.21%     -   56s
     0     0 93048.2109    0 1610 93240.3678 93048.2109  0.21%     -   56s
     0     0 93048.3373    0 1584 93240.3678 93048.3373  0.21%     -   56s
     0     0 93049.0696    0 1609 93240.3678 93049.0696  0.21%     -   57s
     0     0 93049.3976    0 1609 93240.3678 93049.3976  0.20%     -   57s
     0     0 93049.9048    0 1609 93240.3678 93049.9048  0.20%     -   58s
     0     0 93050.6050    0 1609 93240.3678 93050.6050  0.20%     -   59s
     0     0 93052.6680    0 1609 93240.3678 93052.6680  0.20%     -   59s
     0     0 93054.5312    0 1613 93240.3678 93054.5312  0.20%     -   60s
     0     0 93054.5835    0 1612 93240.3678 93054.5835  0.20%     -   60s
     0     0 93055.0262    0 1610 93240.3678 93055.0262  0.20%     -   60s
     0     0 93055.8869    0 1603 93240.3678 93055.8869  0.20%     -   60s
     0     0 93056.0259    0 1604 93240.3678 93056.0259  0.20%     -   61s
     0     0 93056.2025    0 1600 93240.3678 93056.2025  0.20%     -   61s
     0     0 93057.1784    0 1602 93240.3678 93057.1784  0.20%     -   62s
     0     0 93057.5860    0 1600 93240.3678 93057.5860  0.20%     -   63s
     0     0 93059.5978    0 1580 93240.3678 93059.5978  0.19%     -   63s
     0     0 93059.7174    0 1578 93240.3678 93059.7174  0.19%     -   63s
     0     0 93060.1906    0 1607 93240.3678 93060.1906  0.19%     -   63s
     0     0 93061.0998    0 1606 93240.3678 93061.0998  0.19%     -   64s
     0     0 93061.6309    0 2303 93240.3678 93061.6309  0.19%     -   64s
     0     0 93061.8674    0 1602 93240.3678 93061.8674  0.19%     -   74s
     0     0 93062.0355    0 2307 93240.3678 93062.0355  0.19%     -   76s
     0     0 93062.0438    0 2307 93240.3678 93062.0438  0.19%     -   77s
     0     0 93062.0438    0 2308 93240.3678 93062.0438  0.19%     -   77s
     0     0 93062.0851    0 2308 93240.3678 93062.0851  0.19%     -   79s
     0     0 93062.0851    0 2308 93240.3678 93062.0851  0.19%     -   79s
     0     2 93062.0851    0 2307 93240.3678 93062.0851  0.19%     -   80s

Cutting planes:
  Gomory: 3
  MIR: 1
  Zero half: 61

Explored 3 nodes (28427 simplex iterations) in 80.23 seconds
Thread count was 4 (of 4 available processors)

Solution count 7: 93240.4 93811.8 94616.2 ... 415519
Pool objective bound 93240.4

Optimal solution found (tolerance 1.00e-04)
Best objective 9.324036777747e+04, best bound 9.324036777747e+04, gap 0.0000%
Optimize a model with 4635 rows, 168330 columns and 339209 nonzeros
Variable types: 0 continuous, 168330 integer (168330 binary)
Coefficient statistics:
  Matrix range     [1e+00, 1e+05]
  Objective range  [5e-02, 3e+02]
  Bounds range     [1e+00, 1e+00]
  RHS range        [1e+00, 6e+00]
Found heuristic solution: objective 415519
Presolve removed 489 rows and 8676 columns
Presolve time: 0.79s
Presolved: 4146 rows, 159654 columns, 321609 nonzeros

MIP start did not produce a new incumbent solution
MIP start violates constraint R0 by 739999.000000000

Variable types: 0 continuous, 159654 integer (159654 binary)

Root relaxation: objective 8.036547e+04, 3169 iterations, 0.06 seconds

    Nodes    |    Current Node    |     Objective Bounds      |     Work
 Expl Unexpl |  Obj  Depth IntInf | Incumbent    BestBd   Gap | It/Node Time

     0     0 80365.4696    0   37 415519.112 80365.4696  80.7%     -    1s
H    0     0                    116827.01471 80365.4696  31.2%     -    2s
H    0     0                    110293.41326 80365.4696  27.1%     -    2s
H    0     0                    95402.645337 80365.4696  15.8%     -    7s
     0     0 83999.0386    0 1180 95402.6453 83999.0386  12.0%     -    8s
     0     0 84026.4585    0 1086 95402.6453 84026.4585  11.9%     -    9s
     0     0 89157.0834    0 2371 95402.6453 89157.0834  6.55%     -   10s
     0     0 89163.1559    0 2415 95402.6453 89163.1559  6.54%     -   11s
     0     0 90630.2720    0 2396 95402.6453 90630.2720  5.00%     -   12s
     0     0 90634.9802    0 2407 95402.6453 90634.9802  5.00%     -   13s
     0     0 91120.5879    0 2530 95402.6453 91120.5879  4.49%     -   14s
     0     0 91159.5183    0 2585 95402.6453 91159.5183  4.45%     -   14s
     0     0 91463.4677    0 3553 95402.6453 91463.4677  4.13%     -   15s
     0     0 91595.2388    0 3576 95402.6453 91595.2388  3.99%     -   16s
     0     0 91779.0276    0 3812 95402.6453 91779.0276  3.80%     -   17s
H    0     0                    93683.083103 91779.0276  2.03%     -   17s
     0     0 91808.5124    0 3961 93683.0831 91808.5124  2.00%     -   18s
     0     0 92120.1122    0 3715 93683.0831 92120.1122  1.67%     -   18s
     0     0 92978.0881    0 1590 93683.0831 92978.0881  0.75%     -   23s
H    0     0                    93240.367777 92978.0881  0.28%     -   23s
     0     0 92993.6174    0 1590 93240.3678 92993.6174  0.26%     -   26s
     0     0 92993.6174    0 1592 93240.3678 92993.6174  0.26%     -   28s
     0     0 92996.2960    0 1592 93240.3678 92996.2960  0.26%     -   30s
     0     0 92997.4851    0 1590 93240.3678 92997.4851  0.26%     -   32s
     0     0 92997.4851    0 1590 93240.3678 92997.4851  0.26%     -   34s
     0     0 92998.6259    0 1592 93240.3678 92998.6259  0.26%     -   34s
     0     0 93004.1587    0 1590 93240.3678 93004.1587  0.25%     -   35s
     0     0 93004.4368    0 1590 93240.3678 93004.4368  0.25%     -   36s
     0     0 93004.5840    0 1590 93240.3678 93004.5840  0.25%     -   36s
     0     0 93004.8620    0 1590 93240.3678 93004.8620  0.25%     -   37s
     0     0 93005.3229    0 1590 93240.3678 93005.3229  0.25%     -   37s
     0     0 93006.1557    0 1590 93240.3678 93006.1557  0.25%     -   38s
     0     0 93008.3062    0 1590 93240.3678 93008.3062  0.25%     -   38s
     0     0 93008.3062    0 1590 93240.3678 93008.3062  0.25%     -   39s
     0     0 93009.4471    0 1592 93240.3678 93009.4471  0.25%     -   39s
     0     0 93011.5140    0 1590 93240.3678 93011.5140  0.25%     -   40s
     0     0 93011.5362    0 1588 93240.3678 93011.5362  0.25%     -   40s
     0     0 93014.9579    0 1584 93240.3678 93014.9579  0.24%     -   41s
     0     0 93015.8626    0 1592 93240.3678 93015.8626  0.24%     -   41s
     0     0 93017.6723    0 1592 93240.3678 93017.6723  0.24%     -   42s
     0     0 93018.3512    0 1580 93240.3678 93018.3512  0.24%     -   42s
     0     0 93020.2553    0 1592 93240.3678 93020.2553  0.24%     -   43s
     0     0 93021.4970    0 1592 93240.3678 93021.4970  0.23%     -   43s
     0     0 93025.2207    0 1592 93240.3678 93025.2207  0.23%     -   44s
     0     0 93026.2741    0 1576 93240.3678 93026.2741  0.23%     -   45s
     0     0 93027.2683    0 1590 93240.3678 93027.2683  0.23%     -   45s
     0     0 93027.5464    0 1590 93240.3678 93027.5464  0.23%     -   46s
     0     0 93027.9002    0 1604 93240.3678 93027.9002  0.23%     -   46s
     0     0 93028.2161    0 1604 93240.3678 93028.2161  0.23%     -   47s
     0     0 93028.9808    0 1602 93240.3678 93028.9808  0.23%     -   47s
     0     0 93029.3495    0 1609 93240.3678 93029.3495  0.23%     -   48s
     0     0 93034.1940    0 1597 93240.3678 93034.1940  0.22%     -   50s
     0     0 93034.4287    0 1606 93240.3678 93034.4287  0.22%     -   50s
     0     0 93035.1010    0 1607 93240.3678 93035.1010  0.22%     -   50s
     0     0 93035.1972    0 1590 93240.3678 93035.1972  0.22%     -   51s
     0     0 93035.3334    0 1609 93240.3678 93035.3334  0.22%     -   51s
     0     0 93038.2185    0 1609 93240.3678 93038.2185  0.22%     -   52s
     0     0 93039.2876    0 1570 93240.3678 93039.2876  0.22%     -   54s
     0     0 93040.4593    0 1613 93240.3678 93040.4593  0.21%     -   54s
     0     0 93041.1310    0 1602 93240.3678 93041.1310  0.21%     -   55s
     0     0 93041.7818    0 1586 93240.3678 93041.7818  0.21%     -   55s
     0     0 93042.0147    0 1578 93240.3678 93042.0147  0.21%     -   56s
     0     0 93042.1997    0 1566 93240.3678 93042.1997  0.21%     -   56s
     0     0 93043.6723    0 1611 93240.3678 93043.6723  0.21%     -   56s
     0     0 93044.5746    0 1613 93240.3678 93044.5746  0.21%     -   57s
     0     0 93047.0182    0 1574 93240.3678 93047.0182  0.21%     -   58s
     0     0 93048.0492    0 1578 93240.3678 93048.0492  0.21%     -   58s
     0     0 93048.7322    0 1611 93240.3678 93048.7322  0.21%     -   59s
     0     0 93049.1615    0 1588 93240.3678 93049.1615  0.21%     -   59s
     0     0 93049.2638    0 1590 93240.3678 93049.2638  0.20%     -   59s
     0     0 93050.0902    0 1592 93240.3678 93050.0902  0.20%     -   59s
     0     0 93051.9236    0 1591 93240.3678 93051.9236  0.20%     -   60s
     0     0 93053.1429    0 1580 93240.3678 93053.1429  0.20%     -   60s
     0     0 93053.3632    0 1613 93240.3678 93053.3632  0.20%     -   61s
     0     0 93053.3931    0 1616 93240.3678 93053.3931  0.20%     -   61s
     0     0 93053.8391    0 1614 93240.3678 93053.8391  0.20%     -   61s
     0     0 93053.9542    0 1576 93240.3678 93053.9542  0.20%     -   62s
     0     0 93054.2156    0 1616 93240.3678 93054.2156  0.20%     -   62s
     0     0 93055.0607    0 1612 93240.3678 93055.0607  0.20%     -   63s
     0     0 93055.0663    0 1592 93240.3678 93055.0663  0.20%     -   63s
     0     0 93055.5304    0 1578 93240.3678 93055.5304  0.20%     -   63s
     0     0 93055.7684    0 1613 93240.3678 93055.7684  0.20%     -   63s
     0     0 93057.0186    0 1602 93240.3678 93057.0186  0.20%     -   64s
     0     0 93057.1293    0 1592 93240.3678 93057.1293  0.20%     -   64s
     0     0 93057.8153    0 1578 93240.3678 93057.8153  0.20%     -   65s
     0     0 93059.2872    0 1592 93240.3678 93059.2872  0.19%     -   65s
     0     0 93060.2069    0 1572 93240.3678 93060.2069  0.19%     -   65s
     0     0 93060.8702    0 1590 93240.3678 93060.8702  0.19%     -   65s
     0     0 93060.9594    0 1592 93240.3678 93060.9594  0.19%     -   66s
     0     0 93061.9398    0 1580 93240.3678 93061.9398  0.19%     -   66s
     0     0 93062.0392    0 1582 93240.3678 93062.0392  0.19%     -   67s
     0     0 93062.1119    0 1590 93240.3678 93062.1119  0.19%     -   67s
     0     0 93062.1119    0 1588 93240.3678 93062.1119  0.19%     -   67s
     0     2 93062.1119    0 1588 93240.3678 93062.1119  0.19%     -   67s

Cutting planes:
  Gomory: 2
  MIR: 72
  Zero half: 100

Explored 3 nodes (28876 simplex iterations) in 67.75 seconds
Thread count was 4 (of 4 available processors)

Solution count 6: 93240.4 93683.1 95402.6 ... 415519
Pool objective bound 93240.4

Optimal solution found (tolerance 1.00e-04)
Best objective 9.324036777747e+04, best bound 9.324036777747e+04, gap 0.0000%
Optimize a model with 5116 rows, 168330 columns and 340652 nonzeros
Variable types: 0 continuous, 168330 integer (168330 binary)
Coefficient statistics:
  Matrix range     [1e+00, 1e+05]
  Objective range  [5e-02, 3e+02]
  Bounds range     [1e+00, 1e+00]
  RHS range        [1e+00, 6e+00]
Found heuristic solution: objective 415519
Presolve removed 489 rows and 8676 columns
Presolve time: 0.86s
Presolved: 4627 rows, 159654 columns, 323052 nonzeros

MIP start did not produce a new incumbent solution
MIP start violates constraint R0 by 739999.000000000

Variable types: 0 continuous, 159654 integer (159654 binary)

Root relaxation: objective 8.038681e+04, 3190 iterations, 0.05 seconds

    Nodes    |    Current Node    |     Objective Bounds      |     Work
 Expl Unexpl |  Obj  Depth IntInf | Incumbent    BestBd   Gap | It/Node Time

     0     0 80386.8116    0   37 415519.112 80386.8116  80.7%     -    1s
H    0     0                    116266.06838 80386.8116  30.9%     -    1s
H    0     0                    108508.03874 80386.8116  25.9%     -    2s
H    0     0                    94523.252426 80386.8116  15.0%     -    5s
     0     0 85667.9768    0 1136 94523.2524 85667.9768  9.37%     -    6s
     0     0 85741.1719    0 1196 94523.2524 85741.1719  9.29%     -    6s
     0     0 89927.0618    0 2741 94523.2524 89927.0618  4.86%     -    8s
     0     0 89942.7664    0 2776 94523.2524 89942.7664  4.85%     -    9s
     0     0 90779.5164    0 2738 94523.2524 90779.5164  3.96%     -   11s
     0     0 90950.7089    0 2972 94523.2524 90950.7089  3.78%     -   12s
     0     0 91759.7823    0 3933 94523.2524 91759.7823  2.92%     -   13s
     0     0 91820.9449    0 3363 94523.2524 91820.9449  2.86%     -   14s
     0     0 92145.2410    0 3913 94523.2524 92145.2410  2.52%     -   15s
     0     0 92160.4794    0 3257 94523.2524 92160.4794  2.50%     -   16s
     0     0 92332.5405    0 3864 94523.2524 92332.5405  2.32%     -   17s
     0     0 92978.0881    0 1589 94523.2524 92978.0881  1.63%     -   22s
H    0     0                    93260.067305 92978.0881  0.30%     -   22s
     0     0 93218.3971    0 1891 93260.0673 93218.3971  0.04%     -   25s
     0     0 93218.3971    0 1589 93260.0673 93218.3971  0.04%     -   27s
     0     0 93223.4439    0 1889 93260.0673 93223.4439  0.04%     -   29s
     0     0 93231.7288    0 1889 93260.0673 93231.7288  0.03%     -   31s
     0     0 93231.7288    0 1345 93260.0673 93231.7288  0.03%     -   32s
     0     0 93231.7288    0 1688 93260.0673 93231.7288  0.03%     -   34s
     0     0 93231.7288    0 1690 93260.0673 93231.7288  0.03%     -   34s
     0     0 93232.6315    0 1689 93260.0673 93232.6315  0.03%     -   40s
     0     0 93232.6315    0 1155 93260.0673 93232.6315  0.03%     -   40s
     0     0 93233.9368    0 1511 93260.0673 93233.9368  0.03%     -   41s
     0     0 93235.8416    0 1513 93260.0673 93235.8416  0.03%     -   42s
     0     0 93238.2394    0 1512 93260.0673 93238.2394  0.02%     -   42s
     0     0 93241.6597    0 1509 93260.0673 93241.6597  0.02%     -   43s
     0     0 93245.5411    0 1509 93260.0673 93245.5411  0.02%     -   43s
     0     0 93245.5411    0  739 93260.0673 93245.5411  0.02%     -   43s
     0     0     cutoff    0      93260.0673 93260.0673  0.00%     -   44s

Cutting planes:
  Gomory: 5
  Clique: 324
  Zero half: 56

Explored 0 nodes (39899 simplex iterations) in 44.21 seconds
Thread count was 4 (of 4 available processors)

Solution count 5: 93260.1 94523.3 108508 ... 415519
Pool objective bound 93260.1

Optimal solution found (tolerance 1.00e-04)
Best objective 9.326006730471e+04, best bound 9.326006730471e+04, gap 0.0000%
Optimize a model with 5361 rows, 168330 columns and 341387 nonzeros
Variable types: 0 continuous, 168330 integer (168330 binary)
Coefficient statistics:
  Matrix range     [1e+00, 1e+05]
  Objective range  [5e-02, 3e+02]
  Bounds range     [1e+00, 1e+00]
  RHS range        [1e+00, 6e+00]
Found heuristic solution: objective 415519
Presolve removed 489 rows and 8676 columns
Presolve time: 0.80s
Presolved: 4872 rows, 159654 columns, 323787 nonzeros

MIP start did not produce a new incumbent solution
MIP start violates constraint R0 by 739999.000000000

Variable types: 0 continuous, 159654 integer (159654 binary)

Root relaxation: objective 8.055596e+04, 3280 iterations, 0.06 seconds

    Nodes    |    Current Node    |     Objective Bounds      |     Work
 Expl Unexpl |  Obj  Depth IntInf | Incumbent    BestBd   Gap | It/Node Time

     0     0 80555.9647    0   49 415519.112 80555.9647  80.6%     -    1s
H    0     0                    116288.49915 80555.9647  30.7%     -    2s
H    0     0                    113194.72245 80555.9647  28.8%     -    2s
H    0     0                    93758.014840 80555.9647  14.1%     -    3s
     0     0 86512.6100    0 1665 93758.0148 86512.6100  7.73%     -    4s
     0     0 86514.1047    0 1670 93758.0148 86514.1047  7.73%     -    5s
     0     0 90731.4427    0 3247 93758.0148 90731.4427  3.23%     -    7s
     0     0 90779.1615    0 3287 93758.0148 90779.1615  3.18%     -    8s
     0     0 91459.7449    0 2843 93758.0148 91459.7449  2.45%     -   11s
     0     0 91460.2171    0 2850 93758.0148 91460.2171  2.45%     -   11s
     0     0 91910.5090    0 4098 93758.0148 91910.5090  1.97%     -   13s
     0     0 91922.8704    0 4186 93758.0148 91922.8704  1.96%     -   13s
     0     0 92270.2055    0 4234 93758.0148 92270.2055  1.59%     -   15s
     0     0 93042.9582    0 1539 93758.0148 93042.9582  0.76%     -   19s
*    0     0               0    93300.908236 93300.9082  0.00%     -   23s

Cutting planes:
  Gomory: 1
  MIR: 3
  Zero half: 188

Explored 0 nodes (21704 simplex iterations) in 23.43 seconds
Thread count was 4 (of 4 available processors)

Solution count 5: 93300.9 93758 113195 ... 415519
Pool objective bound 93300.9

Optimal solution found (tolerance 1.00e-04)
Best objective 9.330090823572e+04, best bound 9.330090823572e+04, gap 0.0000%
